10 45
1 2 15
1 3 17
1 4 15
1 5 6
1 6 22
1 7 25
1 8 16
1 9 13
1 10 22
2 3 4
2 4 7
2 5 20
2 6 12
2 7 7
2 8 1
2 9 14
2 10 17
3 4 9
3 5 24
3 6 10
3 7 2
3 8 3
3 9 6
3 10 27
4 5 6
4 6 27
4 7 9
4 8 25
4 9 17
4 10 14
5 6 13
5 7 5
5 8 17
5 9 0
5 10 29
6 7 5
6 8 6
6 9 6
6 10 2
7 8 12
7 9 22
7 10 25
8 9 13
8 10 24
9 10 27
